\ENCODING=ISO-8859-1
\Problem name: ilog.cplex

Minimize
 obj1: 97932 x1 + 93825 x2 + 104272 x3 + 93288 x4 + 107553 x5 + 105561 x6
       + 107778 x7 + 107644 x8 + 104516 x9 + 100452 x10 + 95408 x11
       + 102140 x12 + 96818 x13 + 100807 x14 + 93060 x15 + 100257 x16
       + 97879 x17 + 102598 x18 + 109681 x19 + 100364 x20 + 91797 x21
       + 108195 x22 + 100160 x23 + 109929 x24 + 105084 x25 + 106590 x26
       + 91372 x27 + 99872 x28 + 104288 x29 + 95180 x30 + 108604 x31
       + 109497 x32 + 97199 x33 + 108795 x34 + 105695 x35 + 104289 x36
       + 94287 x37 + 98808 x38 + 98987 x39 + 96430 x40 + 106531 x41
       + 108044 x42 + 92497 x43 + 100993 x44 + 96020 x45 + 95639 x46
       + 99779 x47 + 99561 x48 + 96471 x49 + 100086 x50 + 108415 x51
       + 96951 x52 + 90415 x53 + 106528 x54 + 104784 x55 + 97855 x56
       + 103484 x57 + 91915 x58 + 102706 x59 + 92748 x60 + 103581 x61
       + 100119 x62 + 101748 x63 + 92026 x64 + 107314 x65 + 91236 x66
       + 91704 x67 + 104948 x68 + 95577 x69 + 107714 x70 + 95109 x71
       + 92496 x72 + 95865 x73 + 103281 x74 + 92402 x75 + 102929 x76
       + 96671 x77 + 102888 x78 + 93135 x79 + 95476 x80 + 97755 x81
       + 106157 x82 + 101329 x83 + 101864 x84 + 95102 x85 + 93890 x86
       + 93402 x87 + 90217 x88 + 90029 x89 + 104840 x90 + 103075 x91
       + 101388 x92 + 98159 x93 + 98271 x94 + 109210 x95 + 103849 x96
       + 95902 x97 + 106754 x98 + 109779 x99 + 100058 x100 + 94540 x101
       + 105409 x102 + 96178 x103 + 94812 x104 + 101926 x105 + 107645 x106
       + 98892 x107 + 97164 x108 + 91819 x109 + 95920 x110 + 107533 x111
       + 108829 x112 + 96564 x113 + 93665 x114 + 98137 x115 + 98877 x116
       + 107890 x117 + 94474 x118 + 102661 x119 + 91426 x120 + 98871 x121
       + 104893 x122 + 98838 x123 + 98111 x124 + 108756 x125 + 108880 x126
       + 102149 x127 + 96567 x128 + 99976 x129 + 91751 x130 + 92800 x131
       + 96075 x132 + 98985 x133 + 99548 x134 + 105790 x135 + 95023 x136
       + 105579 x137 + 103544 x138 + 107952 x139 + 103863 x140 + 98961 x141
       + 108990 x142 + 102250 x143 + 101995 x144 + 103053 x145 + 92231 x146
       + 96714 x147 + 97318 x148 + 98417 x149 + 90960 x150 + 108662 x151
       + 108067 x152 + 98775 x153 + 95108 x154 + 106165 x155 + 100761 x156
       + 97219 x157 + 91019 x158 + 100765 x159 + 95897 x160 + 106378 x161
       + 92440 x162 + 96525 x163 + 97036 x164 + 98492 x165 + 92739 x166
       + 108107 x167 + 101206 x168 + 96684 x169 + 94879 x170 + 94913 x171
       + 109635 x172 + 107204 x173 + 95564 x174 + 92306 x175 + 90756 x176
       + 91248 x177 + 104971 x178 + 92346 x179 + 94449 x180 + 101225 x181
       + 91343 x182 + 107734 x183 + 99726 x184 + 102906 x185 + 90812 x186
       + 109562 x187 + 102046 x188 + 107118 x189 + 104558 x190 + 101965 x191
       + 90965 x192 + 102437 x193 + 97777 x194 + 104954 x195 + 93999 x196
       + 93841 x197 + 97935 x198 + 100426 x199 + 108417 x200 + 109046 x201
       + 97247 x202 + 97454 x203 + 94702 x204 + 107290 x205 + 91346 x206
       + 98880 x207 + 94764 x208 + 104169 x209 + 108632 x210 + 103058 x211
       + 98946 x212 + 108558 x213 + 106577 x214 + 107088 x215 + 108567 x216
       + 100662 x217 + 105492 x218 + 96411 x219 + 103849 x220 + 90368 x221
       + 98719 x222 + 109156 x223 + 90871 x224 + 90266 x225 + 107720 x226
       + 102029 x227 + 102625 x228 + 93925 x229 + 101242 x230 + 100227 x231
       + 106237 x232 + 101458 x233 + 107440 x234 + 103102 x235 + 108459 x236
       + 106444 x237 + 103178 x238 + 97141 x239 + 107167 x240 + 90957 x241
       + 105668 x242 + 98353 x243 + 107876 x244 + 108744 x245 + 98217 x246
       + 107235 x247 + 91169 x248 + 90543 x249 + 51901 x250 + 211542 x251
       + 185442 x252 + 213121 x253 + 205208 x254 + 217834 x255 + 194944 x256
       + 199411 x257 + 196935 x258 + 197973 x259 + 201459 x260 + 185375 x261
       + 206221 x262 + 190363 x263 + 197533 x264 + 191107 x265 + 204772 x266
       + 182937 x267 + 214388 x268 + 189690 x269 + 217335 x270 + 213291 x271
       + 206581 x272 + 190383 x273 + 183975 x274 + 195915 x275 + 194259 x276
       + 207744 x277 + 196787 x278 + 216252 x279 + 202409 x280 + 198467 x281
       + 216083 x282 + 213842 x283 + 218700 x284 + 192142 x285 + 200179 x286
       + 213131 x287 + 217533 x288 + 180289 x289 + 215781 x290 + 190519 x291
       + 187596 x292 + 219939 x293 + 212539 x294 + 210054 x295 + 213728 x296
       + 213697 x297 + 185733 x298 + 217685 x299 + 71177 x300
Subject To
 c1:   x8 + x15 - x31 + x34 + x46  = 0
 c2:   x58 + x65 - x81 + x84 + x96  = 0
 c3:   x108 + x115 - x131 + x134 + x146  = 0
 c4:   x158 + x165 - x181 + x184 + x196  = 0
 c5:   x208 + x215 - x231 + x234 + x246  = 0
 c6:   - x1 - x14 + x16 - x25 - x30 - x34 + x43  = 0
 c7:   - x51 - x64 + x66 - x75 - x80 - x84 + x93  = 0
 c8:   - x101 - x114 + x116 - x125 - x130 - x134 + x143  = 0
 c9:   - x151 - x164 + x166 - x175 - x180 - x184 + x193  = 0
 c10:  - x201 - x214 + x216 - x225 - x230 - x234 + x243  = 0
 c11:  x2 - x10 + x12 + x25 - x26 + x28 - x29 - x44  = 0
 c12:  x52 - x60 + x62 + x75 - x76 + x78 - x79 - x94  = 0
 c13:  x102 - x110 + x112 + x125 - x126 + x128 - x129 - x144  = 1
 c14:  x152 - x160 + x162 + x175 - x176 + x178 - x179 - x194  = 0
 c15:  x202 - x210 + x212 + x225 - x226 + x228 - x229 - x244  = 0
 c16:  x5 + x13 + x26 - x35 - x43  = 0
 c17:  x55 + x63 + x76 - x85 - x93  = 0
 c18:  x105 + x113 + x126 - x135 - x143  = 0
 c19:  x155 + x163 + x176 - x185 - x193  = 0
 c20:  x205 + x213 + x226 - x235 - x243  = 0
 c21:  - x3 + x7 - x19 - x24 + x36 + x40 - x45 + x47  = 0
 c22:  - x53 + x57 - x69 - x74 + x86 + x90 - x95 + x97  = 0
 c23:  - x103 + x107 - x119 - x124 + x136 + x140 - x145 + x147  = 0
 c24:  - x153 + x157 - x169 - x174 + x186 + x190 - x195 + x197  = 0
 c25:  - x203 + x207 - x219 - x224 + x236 + x240 - x245 + x247  = -1
 c26:  - x6 - x27 + x31 - x38 + x45 + x49  = 0
 c27:  - x56 - x77 + x81 - x88 + x95 + x99  = 1
 c28:  - x106 - x127 + x131 - x138 + x145 + x149  = -1
 c29:  - x156 - x177 + x181 - x188 + x195 + x199  = 0
 c30:  - x206 - x227 + x231 - x238 + x245 + x249  = 0
 c31:  x17 - x32 + x38 - x48 - x49  = 0
 c32:  x67 - x82 + x88 - x98 - x99  = 0
 c33:  x117 - x132 + x138 - x148 - x149  = 0
 c34:  x167 - x182 + x188 - x198 - x199  = 0
 c35:  x217 - x232 + x238 - x248 - x249  = 0
 c36:  x3 + x4 - x5 - x7 - x17 + x21 + x22 + x44  = 1
 c37:  x53 + x54 - x55 - x57 - x67 + x71 + x72 + x94  = 0
 c38:  x103 + x104 - x105 - x107 - x117 + x121 + x122 + x144  = 0
 c39:  x153 + x154 - x155 - x157 - x167 + x171 + x172 + x194  = 0
 c40:  x203 + x204 - x205 - x207 - x217 + x221 + x222 + x244  = 0
 c41:  - x4 - x12 + x30 - x41 - x47  = 0
 c42:  - x54 - x62 + x80 - x91 - x97  = 0
 c43:  - x104 - x112 + x130 - x141 - x147  = 0
 c44:  - x154 - x162 + x180 - x191 - x197  = 0
 c45:  - x204 - x212 + x230 - x241 - x247  = 0
 c46:  - x2 + x14 - x18 + x24 + x27 - x37 - x40 + x50  = -1
 c47:  - x52 + x64 - x68 + x74 + x77 - x87 - x90 + x100  = -1
 c48:  - x102 + x114 - x118 + x124 + x127 - x137 - x140 + x150  = 0
 c49:  - x152 + x164 - x168 + x174 + x177 - x187 - x190 + x200  = 1
 c50:  - x202 + x214 - x218 + x224 + x227 - x237 - x240 + x250  = 0
 c51:  x20 - x22 + x32 + x33 - x36 + x39 - x46  = 0
 c52:  x70 - x72 + x82 + x83 - x86 + x89 - x96  = 0
 c53:  x120 - x122 + x132 + x133 - x136 + x139 - x146  = 0
 c54:  x170 - x172 + x182 + x183 - x186 + x189 - x196  = -1
 c55:  x220 - x222 + x232 + x233 - x236 + x239 - x246  = 1
 c56:  x6 - x13 - x20 + x29 + x35 + x41 + x42  = 0
 c57:  x56 - x63 - x70 + x79 + x85 + x91 + x92  = 0
 c58:  x106 - x113 - x120 + x129 + x135 + x141 + x142  = 0
 c59:  x156 - x163 - x170 + x179 + x185 + x191 + x192  = 0
 c60:  x206 - x213 - x220 + x229 + x235 + x241 + x242  = 0
 c61:  x10 - x11 + x18 - x21 + x23 - x33 + x48 - x50  = 0
 c62:  x60 - x61 + x68 - x71 + x73 - x83 + x98 - x100  = 0
 c63:  x110 - x111 + x118 - x121 + x123 - x133 + x148 - x150  = 0
 c64:  x160 - x161 + x168 - x171 + x173 - x183 + x198 - x200  = 0
 c65:  x210 - x211 + x218 - x221 + x223 - x233 + x248 - x250  = 0
 c66:  x1 - x8 - x9 + x11 - x16 + x19 - x42  = 0
 c67:  x51 - x58 - x59 + x61 - x66 + x69 - x92  = 0
 c68:  x101 - x108 - x109 + x111 - x116 + x119 - x142  = 0
 c69:  x151 - x158 - x159 + x161 - x166 + x169 - x192  = 0
 c70:  x201 - x208 - x209 + x211 - x216 + x219 - x242  = 0
 c71:  x9 - x15 - x23 - x28 + x37 - x39  = 0
 c72:  x59 - x65 - x73 - x78 + x87 - x89  = 0
 c73:  x109 - x115 - x123 - x128 + x137 - x139  = 0
 c74:  x159 - x165 - x173 - x178 + x187 - x189  = 0
 c75:  x209 - x215 - x223 - x228 + x237 - x239  = 0
 c76:  4 x1 + 4 x51 + 4 x101 + 4 x151 + 4 x201 - 2 x251 <= 0
 c77:  4 x2 + 4 x52 + 4 x102 + 4 x152 + 4 x202 - 2 x252 <= 0
 c78:  4 x3 + 4 x53 + 4 x103 + 4 x153 + 4 x203 - 2 x253 <= 0
 c79:  4 x4 + 4 x54 + 4 x104 + 4 x154 + 4 x204 - 2 x254 <= 0
 c80:  4 x5 + 4 x55 + 4 x105 + 4 x155 + 4 x205 - 2 x255 <= 0
 c81:  4 x6 + 4 x56 + 4 x106 + 4 x156 + 4 x206 - 2 x256 <= 0
 c82:  4 x7 + 4 x57 + 4 x107 + 4 x157 + 4 x207 - 2 x257 <= 0
 c83:  4 x8 + 4 x58 + 4 x108 + 4 x158 + 4 x208 - 2 x258 <= 0
 c84:  4 x9 + 4 x59 + 4 x109 + 4 x159 + 4 x209 - 2 x259 <= 0
 c85:  4 x10 + 4 x60 + 4 x110 + 4 x160 + 4 x210 - 2 x260 <= 0
 c86:  4 x11 + 4 x61 + 4 x111 + 4 x161 + 4 x211 - 2 x261 <= 0
 c87:  4 x12 + 4 x62 + 4 x112 + 4 x162 + 4 x212 - 2 x262 <= 0
 c88:  4 x13 + 4 x63 + 4 x113 + 4 x163 + 4 x213 - 2 x263 <= 0
 c89:  4 x14 + 4 x64 + 4 x114 + 4 x164 + 4 x214 - 2 x264 <= 0
 c90:  4 x15 + 4 x65 + 4 x115 + 4 x165 + 4 x215 - 2 x265 <= 0
 c91:  4 x16 + 4 x66 + 4 x116 + 4 x166 + 4 x216 - 2 x266 <= 0
 c92:  4 x17 + 4 x67 + 4 x117 + 4 x167 + 4 x217 - 2 x267 <= 0
 c93:  4 x18 + 4 x68 + 4 x118 + 4 x168 + 4 x218 - 2 x268 <= 0
 c94:  4 x19 + 4 x69 + 4 x119 + 4 x169 + 4 x219 - 2 x269 <= 0
 c95:  4 x20 + 4 x70 + 4 x120 + 4 x170 + 4 x220 - 2 x270 <= 0
 c96:  4 x21 + 4 x71 + 4 x121 + 4 x171 + 4 x221 - 2 x271 <= 0
 c97:  4 x22 + 4 x72 + 4 x122 + 4 x172 + 4 x222 - 2 x272 <= 0
 c98:  4 x23 + 4 x73 + 4 x123 + 4 x173 + 4 x223 - 2 x273 <= 0
 c99:  4 x24 + 4 x74 + 4 x124 + 4 x174 + 4 x224 - 2 x274 <= 0
 c100: 4 x25 + 4 x75 + 4 x125 + 4 x175 + 4 x225 - 2 x275 <= 0
 c101: 4 x26 + 4 x76 + 4 x126 + 4 x176 + 4 x226 - 2 x276 <= 0
 c102: 4 x27 + 4 x77 + 4 x127 + 4 x177 + 4 x227 - 2 x277 <= 0
 c103: 4 x28 + 4 x78 + 4 x128 + 4 x178 + 4 x228 - 2 x278 <= 0
 c104: 4 x29 + 4 x79 + 4 x129 + 4 x179 + 4 x229 - 2 x279 <= 0
 c105: 4 x30 + 4 x80 + 4 x130 + 4 x180 + 4 x230 - 2 x280 <= 0
 c106: 4 x31 + 4 x81 + 4 x131 + 4 x181 + 4 x231 - 2 x281 <= 0
 c107: 4 x32 + 4 x82 + 4 x132 + 4 x182 + 4 x232 - 2 x282 <= 0
 c108: 4 x33 + 4 x83 + 4 x133 + 4 x183 + 4 x233 - 2 x283 <= 0
 c109: 4 x34 + 4 x84 + 4 x134 + 4 x184 + 4 x234 - 2 x284 <= 0
 c110: 4 x35 + 4 x85 + 4 x135 + 4 x185 + 4 x235 - 2 x285 <= 0
 c111: 4 x36 + 4 x86 + 4 x136 + 4 x186 + 4 x236 - 2 x286 <= 0
 c112: 4 x37 + 4 x87 + 4 x137 + 4 x187 + 4 x237 - 2 x287 <= 0
 c113: 4 x38 + 4 x88 + 4 x138 + 4 x188 + 4 x238 - 2 x288 <= 0
 c114: 4 x39 + 4 x89 + 4 x139 + 4 x189 + 4 x239 - 2 x289 <= 0
 c115: 4 x40 + 4 x90 + 4 x140 + 4 x190 + 4 x240 - 2 x290 <= 0
 c116: 4 x41 + 4 x91 + 4 x141 + 4 x191 + 4 x241 - 2 x291 <= 0
 c117: 4 x42 + 4 x92 + 4 x142 + 4 x192 + 4 x242 - 2 x292 <= 0
 c118: 4 x43 + 4 x93 + 4 x143 + 4 x193 + 4 x243 - 2 x293 <= 0
 c119: 4 x44 + 4 x94 + 4 x144 + 4 x194 + 4 x244 - 2 x294 <= 0
 c120: 4 x45 + 4 x95 + 4 x145 + 4 x195 + 4 x245 - 2 x295 <= 0
 c121: 4 x46 + 4 x96 + 4 x146 + 4 x196 + 4 x246 - 2 x296 <= 0
 c122: 4 x47 + 4 x97 + 4 x147 + 4 x197 + 4 x247 - 2 x297 <= 0
 c123: 4 x48 + 4 x98 + 4 x148 + 4 x198 + 4 x248 - 2 x298 <= 0
 c124: 4 x49 + 4 x99 + 4 x149 + 4 x199 + 4 x249 - 2 x299 <= 0
 c125: 4 x50 + 4 x100 + 4 x150 + 4 x200 + 4 x250 - 2 x300 <= 0
Bounds
 0 <= x1 <= 1
 0 <= x2 <= 1
 0 <= x3 <= 1
 0 <= x4 <= 1
 0 <= x5 <= 1
 0 <= x6 <= 1
 0 <= x7 <= 1
 0 <= x8 <= 1
 0 <= x9 <= 1
 0 <= x10 <= 1
 0 <= x11 <= 1
 0 <= x12 <= 1
 0 <= x13 <= 1
 0 <= x14 <= 1
 0 <= x15 <= 1
 0 <= x16 <= 1
 0 <= x17 <= 1
 0 <= x18 <= 1
 0 <= x19 <= 1
 0 <= x20 <= 1
 0 <= x21 <= 1
 0 <= x22 <= 1
 0 <= x23 <= 1
 0 <= x24 <= 1
 0 <= x25 <= 1
 0 <= x26 <= 1
 0 <= x27 <= 1
 0 <= x28 <= 1
 0 <= x29 <= 1
 0 <= x30 <= 1
 0 <= x31 <= 1
 0 <= x32 <= 1
 0 <= x33 <= 1
 0 <= x34 <= 1
 0 <= x35 <= 1
 0 <= x36 <= 1
 0 <= x37 <= 1
 0 <= x38 <= 1
 0 <= x39 <= 1
 0 <= x40 <= 1
 0 <= x41 <= 1
 0 <= x42 <= 1
 0 <= x43 <= 1
 0 <= x44 <= 1
 0 <= x45 <= 1
 0 <= x46 <= 1
 0 <= x47 <= 1
 0 <= x48 <= 1
 0 <= x49 <= 1
 0 <= x50 <= 1
 0 <= x51 <= 1
 0 <= x52 <= 1
 0 <= x53 <= 1
 0 <= x54 <= 1
 0 <= x55 <= 1
 0 <= x56 <= 1
 0 <= x57 <= 1
 0 <= x58 <= 1
 0 <= x59 <= 1
 0 <= x60 <= 1
 0 <= x61 <= 1
 0 <= x62 <= 1
 0 <= x63 <= 1
 0 <= x64 <= 1
 0 <= x65 <= 1
 0 <= x66 <= 1
 0 <= x67 <= 1
 0 <= x68 <= 1
 0 <= x69 <= 1
 0 <= x70 <= 1
 0 <= x71 <= 1
 0 <= x72 <= 1
 0 <= x73 <= 1
 0 <= x74 <= 1
 0 <= x75 <= 1
 0 <= x76 <= 1
 0 <= x77 <= 1
 0 <= x78 <= 1
 0 <= x79 <= 1
 0 <= x80 <= 1
 0 <= x81 <= 1
 0 <= x82 <= 1
 0 <= x83 <= 1
 0 <= x84 <= 1
 0 <= x85 <= 1
 0 <= x86 <= 1
 0 <= x87 <= 1
 0 <= x88 <= 1
 0 <= x89 <= 1
 0 <= x90 <= 1
 0 <= x91 <= 1
 0 <= x92 <= 1
 0 <= x93 <= 1
 0 <= x94 <= 1
 0 <= x95 <= 1
 0 <= x96 <= 1
 0 <= x97 <= 1
 0 <= x98 <= 1
 0 <= x99 <= 1
 0 <= x100 <= 1
 0 <= x101 <= 1
 0 <= x102 <= 1
 0 <= x103 <= 1
 0 <= x104 <= 1
 0 <= x105 <= 1
 0 <= x106 <= 1
 0 <= x107 <= 1
 0 <= x108 <= 1
 0 <= x109 <= 1
 0 <= x110 <= 1
 0 <= x111 <= 1
 0 <= x112 <= 1
 0 <= x113 <= 1
 0 <= x114 <= 1
 0 <= x115 <= 1
 0 <= x116 <= 1
 0 <= x117 <= 1
 0 <= x118 <= 1
 0 <= x119 <= 1
 0 <= x120 <= 1
 0 <= x121 <= 1
 0 <= x122 <= 1
 0 <= x123 <= 1
 0 <= x124 <= 1
 0 <= x125 <= 1
 0 <= x126 <= 1
 0 <= x127 <= 1
 0 <= x128 <= 1
 0 <= x129 <= 1
 0 <= x130 <= 1
 0 <= x131 <= 1
 0 <= x132 <= 1
 0 <= x133 <= 1
 0 <= x134 <= 1
 0 <= x135 <= 1
 0 <= x136 <= 1
 0 <= x137 <= 1
 0 <= x138 <= 1
 0 <= x139 <= 1
 0 <= x140 <= 1
 0 <= x141 <= 1
 0 <= x142 <= 1
 0 <= x143 <= 1
 0 <= x144 <= 1
 0 <= x145 <= 1
 0 <= x146 <= 1
 0 <= x147 <= 1
 0 <= x148 <= 1
 0 <= x149 <= 1
 0 <= x150 <= 1
 0 <= x151 <= 1
 0 <= x152 <= 1
 0 <= x153 <= 1
 0 <= x154 <= 1
 0 <= x155 <= 1
 0 <= x156 <= 1
 0 <= x157 <= 1
 0 <= x158 <= 1
 0 <= x159 <= 1
 0 <= x160 <= 1
 0 <= x161 <= 1
 0 <= x162 <= 1
 0 <= x163 <= 1
 0 <= x164 <= 1
 0 <= x165 <= 1
 0 <= x166 <= 1
 0 <= x167 <= 1
 0 <= x168 <= 1
 0 <= x169 <= 1
 0 <= x170 <= 1
 0 <= x171 <= 1
 0 <= x172 <= 1
 0 <= x173 <= 1
 0 <= x174 <= 1
 0 <= x175 <= 1
 0 <= x176 <= 1
 0 <= x177 <= 1
 0 <= x178 <= 1
 0 <= x179 <= 1
 0 <= x180 <= 1
 0 <= x181 <= 1
 0 <= x182 <= 1
 0 <= x183 <= 1
 0 <= x184 <= 1
 0 <= x185 <= 1
 0 <= x186 <= 1
 0 <= x187 <= 1
 0 <= x188 <= 1
 0 <= x189 <= 1
 0 <= x190 <= 1
 0 <= x191 <= 1
 0 <= x192 <= 1
 0 <= x193 <= 1
 0 <= x194 <= 1
 0 <= x195 <= 1
 0 <= x196 <= 1
 0 <= x197 <= 1
 0 <= x198 <= 1
 0 <= x199 <= 1
 0 <= x200 <= 1
 0 <= x201 <= 1
 0 <= x202 <= 1
 0 <= x203 <= 1
 0 <= x204 <= 1
 0 <= x205 <= 1
 0 <= x206 <= 1
 0 <= x207 <= 1
 0 <= x208 <= 1
 0 <= x209 <= 1
 0 <= x210 <= 1
 0 <= x211 <= 1
 0 <= x212 <= 1
 0 <= x213 <= 1
 0 <= x214 <= 1
 0 <= x215 <= 1
 0 <= x216 <= 1
 0 <= x217 <= 1
 0 <= x218 <= 1
 0 <= x219 <= 1
 0 <= x220 <= 1
 0 <= x221 <= 1
 0 <= x222 <= 1
 0 <= x223 <= 1
 0 <= x224 <= 1
 0 <= x225 <= 1
 0 <= x226 <= 1
 0 <= x227 <= 1
 0 <= x228 <= 1
 0 <= x229 <= 1
 0 <= x230 <= 1
 0 <= x231 <= 1
 0 <= x232 <= 1
 0 <= x233 <= 1
 0 <= x234 <= 1
 0 <= x235 <= 1
 0 <= x236 <= 1
 0 <= x237 <= 1
 0 <= x238 <= 1
 0 <= x239 <= 1
 0 <= x240 <= 1
 0 <= x241 <= 1
 0 <= x242 <= 1
 0 <= x243 <= 1
 0 <= x244 <= 1
 0 <= x245 <= 1
 0 <= x246 <= 1
 0 <= x247 <= 1
 0 <= x248 <= 1
 0 <= x249 <= 1
 0 <= x250 <= 1
 0 <= x251 <= 1
 0 <= x252 <= 1
 0 <= x253 <= 1
 0 <= x254 <= 1
 0 <= x255 <= 1
 0 <= x256 <= 1
 0 <= x257 <= 1
 0 <= x258 <= 1
 0 <= x259 <= 1
 0 <= x260 <= 1
 0 <= x261 <= 1
 0 <= x262 <= 1
 0 <= x263 <= 1
 0 <= x264 <= 1
 0 <= x265 <= 1
 0 <= x266 <= 1
 0 <= x267 <= 1
 0 <= x268 <= 1
 0 <= x269 <= 1
 0 <= x270 <= 1
 0 <= x271 <= 1
 0 <= x272 <= 1
 0 <= x273 <= 1
 0 <= x274 <= 1
 0 <= x275 <= 1
 0 <= x276 <= 1
 0 <= x277 <= 1
 0 <= x278 <= 1
 0 <= x279 <= 1
 0 <= x280 <= 1
 0 <= x281 <= 1
 0 <= x282 <= 1
 0 <= x283 <= 1
 0 <= x284 <= 1
 0 <= x285 <= 1
 0 <= x286 <= 1
 0 <= x287 <= 1
 0 <= x288 <= 1
 0 <= x289 <= 1
 0 <= x290 <= 1
 0 <= x291 <= 1
 0 <= x292 <= 1
 0 <= x293 <= 1
 0 <= x294 <= 1
 0 <= x295 <= 1
 0 <= x296 <= 1
 0 <= x297 <= 1
 0 <= x298 <= 1
 0 <= x299 <= 1
 0 <= x300 <= 1
Binaries
 x251  x252  x253  x254  x255  x256  x257  x258  x259  x260  x261  x262  x263 
 x264  x265  x266  x267  x268  x269  x270  x271  x272  x273  x274  x275  x276 
 x277  x278  x279  x280  x281  x282  x283  x284  x285  x286  x287  x288  x289 
 x290  x291  x292  x293  x294  x295  x296  x297  x298  x299  x300 
End
